
se = 80; % nombre de sessions
gr = 40; % nombre de grups de treball
cl = 12; % nombre de slots
minPapersPerSlot = 3; % minim nombre d'articles per sessio i slot
maxSesionsPar = 20; % maxim nombre de sessions paraleles

npMax = [5, 6, 3, 4, 6, 5, 6, 3, 5, 3, 4, 3]; % nombre maxim de papers per slot

np = [3, 8, 11, 6, 13, 7, 18, 12, 6, 10, 8, 11, 18, 9, 3, 3, 17, 16, 6, 14, 5, 3, 7, 9, 3, 7, 11, 7, 11, 18, 15, 3, 3, 10, 3, 3, 14, 3, 16, 16, 10, 14, 10, 3, 9, 13, 12, 3, 3, 13, 6, 10, 16, 17, 3, 13, 13, 8, 11, 16, 3, 9, 3, 13, 3, 16, 13, 9, 10, 12, 3, 9, 13, 6, 14, 5, 10, 14, 5, 3]; % nombre de papers acceptats a cada sessio

WG = [ {1}, {}, {2}, {3}, {4,5,6}, {}, {}, {}, {}, {7,8}, {}, {}, {9}, {}, {10}, {11}, {12}, {13,14}, {15}, {}, {16,17}, {18}, {}, {}, {19}, {20}, {21}, {}, {}, {22,23,24}, {25}, {26,27}, {}, {28}, {}, {29,30}, {}, {31}, {32}, {}, {33}, {}, {}, {34}, {}, {35}, {}, {36}, {37}, {38}, {39}, {40}, {1}, {2}, {3}, {4}, {5,6,7}, {8}, {}, {9}, {10,11,12}, {13}, {14}, {}, {15}, {16,17}, {18}, {}, {19}, {20,21}, {22,23}, {}, {24}, {25,26}, {27,28}, {29}, {30}, {31}, {}, {} ]; % grups per sessio

